(declare-const fee_bl Real)
(declare-const p5 Real)
(declare-const p2 Real)
(declare-const p575 Real)
(declare-const income Real)
(declare-const p3 Real)
(assert (= p2 (* 0.02 (ite (> income 3000) 3000 income))))
(assert (= p3 (ite (> income 3000) (* 0.03 (- (ite (> income 5000) 5000 income) 3000)) 0)))
(assert (= p5 (ite (> income 5000) (* 0.05 (- (ite (> income 17000) 17000 income) 5000)) 0)))
(assert (= p575 (ite (> income 17000) (* 0.0575 (- income 17000)) 0)))
(assert (= fee_bl (+ (+ (+ p2 p3) p5) p575)))